# Solution for model GasLib-40
# Objective value = 4.5204724550132696e+01
loadshed[innode_1] 0
loadshed[innode_2] 0
loadshed[innode_3] 0
loadshed[innode_4] 0
loadshed[innode_5] 0
loadshed[innode_6] 0
loadshed[innode_7] 0
loadshed[innode_8] 0
loadshed[source_1] -0.066219493549736
loadshed[source_2] 9.0705953734502520e-02
loadshed[source_3] 2.6145601006419672e-01
loadshed[sink_1] 0
loadshed[sink_2] 0
loadshed[sink_3] 0
loadshed[sink_4] 0
loadshed[sink_5] 0
loadshed[sink_6] 0
loadshed[sink_7] 0
loadshed[sink_8] 0
loadshed[sink_9] 0
loadshed[sink_10] 0
loadshed[sink_11] 0
loadshed[sink_12] 1
loadshed[sink_13] 0
loadshed[sink_14] 0
loadshed[sink_15] 0
loadshed[sink_16] 0
loadshed[sink_17] 0
loadshed[sink_18] 0
loadshed[sink_19] 0
loadshed[sink_20] 0
loadshed[sink_21] 1
loadshed[sink_22] 0
loadshed[sink_23] 0
loadshed[sink_24] 7.6411054574059756e-01
loadshed[sink_25] 0
loadshed[sink_26] 0
loadshed[sink_27] 0
loadshed[sink_28] 0
loadshed[sink_29] 0
flow[source_1,sink_3] 1.6855893590735928e+02
flow[innode_1,sink_16] 1.6354166666666970e+01
flow[innode_6,sink_13] -2.2774578533920726e+00
flow[sink_13,sink_14] -1.8631624520058740e+01
flow[sink_14,sink_10] -3.4985791186725407e+01
flow[sink_25,sink_26] 1.8375360878320373e+02
flow[sink_26,sink_9] 3.2708333333334551e+01
flow[sink_9,sink_18] 1.6354166666667879e+01
flow[sink_26,sink_4] 1.3469110878320259e+02
flow[sink_4,sink_20] 0
flow[sink_18,sink_6] 0
flow[sink_25,innode_8] -1.3585060257402293e+02
flow[sink_6,sink_7] -4.9062500000000313e+01
flow[sink_6,sink_22] 3.2708333333333641e+01
flow[sink_7,sink_24] 3.8577754498673129e+00
flow[sink_22,sink_1] 1.6354166666666970e+01
flow[sink_24,sink_21] 0
flow[sink_21,sink_12] 0
flow[sink_7,sink_5] -6.9274442116534289e+01
flow[sink_5,sink_17] -8.5628608783200960e+01
flow[sink_17,sink_4] -1.1833694211653594e+02
flow[sink_17,sink_8] 1.6354166666668334e+01
flow[sink_3,sink_23] 16.3541666666697
flow[sink_8,sink_20] 0
flow[sink_25,sink_20] 1.6354166666668618e+01
flow[sink_25,sink_15] -7.8333881689124127e+01
flow[sink_15,sink_29] -5.3926567310136434e+01
flow[sink_29,sink_28] 1.6354166666667879e+01
flow[sink_29,sink_2] 5.7115647712321021e+01
flow[sink_2,sink_15] 4.0761481045654357e+01
flow[sink_29,innode_7] -143.750548355792
flow[innode_4,sink_19] 4.5158547547258912e+01
flow[sink_19,innode_3] 4.1015211331476024e+01
flow[innode_4,innode_5] 7.1598076972800541e+01
flow[sink_27,innode_5] -7.1598076972800541e+01
flow[sink_27,sink_19] 5.5243910306133870e+01
flow[sink_10,sink_11] 3.2708333333333641e+01
flow[sink_10,innode_2] -4.3033079855249667e+01
flow[sink_10,innode_3] -4.1015211331476024e+01
flow[innode_6,sink_25] 2.2774578533920726e+00
flow[sink_11,innode_1] 1.6354166666666970e+01
flow[sink_19,innode_2] 4.3033079855249667e+01
flow[source_3,innode_4] 1.1675662452005946e+02
flow[source_2,innode_7] 143.750548355792
flow[sink_3,innode_8] 1.3585060257402293e+02
pressure[innode_1] 7.6757584863831468e+01
pressure[innode_2] 7.9183762174225578e+01
pressure[innode_3] 79.0929386332008
pressure[innode_4] 81.01325
pressure[innode_5] 8.0964001067279810e+01
pressure[innode_6] 7.5208609249772309e+01
pressure[innode_7] 81.01325
pressure[innode_8] 8.0449821869109158e+01
pressure[source_1] 81.01325
pressure[source_2] 81.01325
pressure[source_3] 81.01325
pressure[sink_1] 2.6555266547409886e+00
pressure[sink_2] 75.7216821581376
pressure[sink_3] 8.0449821869109158e+01
pressure[sink_4] 4.5141974328833491e+01
pressure[sink_5] 3.4240814192157551e+01
pressure[sink_6] 4.7566042651283622e+00
pressure[sink_7] 5.4301154428284937e+00
pressure[sink_8] 4.0002441409730750e+01
pressure[sink_9] 6.0309272327796727e+01
pressure[sink_10] 7.6909286171435014e+01
pressure[sink_11] 7.6757584863831468e+01
pressure[sink_12] 1.01325
pressure[sink_13] 75.2211644943195
pressure[sink_14] 7.5254507373461621e+01
pressure[sink_15] 7.5588604906209255e+01
pressure[sink_16] 7.5735935029013788e+01
pressure[sink_17] 4.0619526605144372e+01
pressure[sink_18] 5.9717529833997020e+01
pressure[sink_19] 7.9183762174225578e+01
pressure[sink_20] 7.1309825921606077e+01
pressure[sink_21] 1.01325
pressure[sink_22] 3.7192957970959988e+00
pressure[sink_23] 8.0285103857449371e+01
pressure[sink_24] 1.01325
pressure[sink_25] 7.5208609249772309e+01
pressure[sink_26] 6.2266950495681336e+01
pressure[sink_27] 80.3698693274265
pressure[sink_28] 7.6873203699991578e+01
pressure[sink_29] 7.7168485973608753e+01
interdiction[source_1,sink_3] 0
interdiction[innode_1,sink_16] 0
interdiction[innode_6,sink_13] 0
interdiction[sink_13,sink_14] 0
interdiction[sink_14,sink_10] 0
interdiction[sink_25,sink_26] 0
interdiction[sink_26,sink_9] 0
interdiction[sink_9,sink_18] 0
interdiction[sink_26,sink_4] 0
interdiction[sink_4,sink_20] 1
interdiction[sink_18,sink_6] 1
interdiction[sink_25,innode_8] 0
interdiction[sink_6,sink_7] 0
interdiction[sink_6,sink_22] 0
interdiction[sink_7,sink_24] 0
interdiction[sink_22,sink_1] 0
interdiction[sink_24,sink_21] 0
interdiction[sink_21,sink_12] 0
interdiction[sink_7,sink_5] 0
interdiction[sink_5,sink_17] 0
interdiction[sink_17,sink_4] 0
interdiction[sink_17,sink_8] 0
interdiction[sink_3,sink_23] 0
interdiction[sink_8,sink_20] 1
interdiction[sink_25,sink_20] 0
interdiction[sink_25,sink_15] 0
interdiction[sink_15,sink_29] 0
interdiction[sink_29,sink_28] 0
interdiction[sink_29,sink_2] 0
interdiction[sink_2,sink_15] 0
interdiction[sink_29,innode_7] 0
interdiction[innode_4,sink_19] 0
interdiction[sink_19,innode_3] 0
interdiction[innode_4,innode_5] 0
interdiction[sink_27,innode_5] 0
interdiction[sink_27,sink_19] 0
interdiction[sink_10,sink_11] 0
interdiction[sink_10,innode_2] 0
interdiction[sink_10,innode_3] 0
interdiction[innode_6,sink_25] 0
interdiction[sink_11,innode_1] 0
interdiction[sink_19,innode_2] 0
interdiction[source_3,innode_4] 0
interdiction[source_2,innode_7] 0
interdiction[sink_3,innode_8] 0
WCcheckFlow[source_1,sink_3] 39
WCcheckFlow[innode_1,sink_16] 1
WCcheckFlow[innode_6,sink_13] 13
WCcheckFlow[sink_13,sink_14] 12
WCcheckFlow[sink_14,sink_10] 11
WCcheckFlow[sink_25,sink_26] 14
WCcheckFlow[sink_26,sink_9] 2
WCcheckFlow[sink_9,sink_18] 1
WCcheckFlow[sink_26,sink_4] 11
WCcheckFlow[sink_4,sink_20] 0
WCcheckFlow[sink_18,sink_6] 0
WCcheckFlow[sink_25,innode_8] -36
WCcheckFlow[sink_6,sink_7] -3
WCcheckFlow[sink_6,sink_22] 2
WCcheckFlow[sink_7,sink_24] 3
WCcheckFlow[sink_22,sink_1] 1
WCcheckFlow[sink_24,sink_21] 2
WCcheckFlow[sink_21,sink_12] 1
WCcheckFlow[sink_7,sink_5] -7
WCcheckFlow[sink_5,sink_17] -8
WCcheckFlow[sink_17,sink_4] -10
WCcheckFlow[sink_17,sink_8] 1
WCcheckFlow[sink_3,sink_23] 1
WCcheckFlow[sink_8,sink_20] 0
WCcheckFlow[sink_25,sink_20] 1
WCcheckFlow[sink_25,sink_15] 6
WCcheckFlow[sink_15,sink_29] 5
WCcheckFlow[sink_29,sink_28] 1
WCcheckFlow[sink_29,sink_2] 1
WCcheckFlow[sink_2,sink_15] 0
WCcheckFlow[sink_29,innode_7] 2
WCcheckFlow[innode_4,sink_19] -4
WCcheckFlow[sink_19,innode_3] -5
WCcheckFlow[innode_4,innode_5] 2
WCcheckFlow[sink_27,innode_5] -1
WCcheckFlow[sink_27,sink_19] 0
WCcheckFlow[sink_10,sink_11] 3
WCcheckFlow[sink_10,innode_2] 1
WCcheckFlow[sink_10,innode_3] 6
WCcheckFlow[innode_6,sink_25] -14
WCcheckFlow[sink_11,innode_1] 2
WCcheckFlow[sink_19,innode_2] 0
WCcheckFlow[source_3,innode_4] -1
WCcheckFlow[source_2,innode_7] -1
WCcheckFlow[sink_3,innode_8] 37
